Normalized Data/p01_7_normalized_splitx10_0.vrp
NAME:p01_7_NORMALIZED_splitx10_
BEST_KNOWN: 0
COMMENT: 0
DIMENSION: 198
CAPACITY: 1000
EDGE_WEIGHT_FORMAT: FUNCTION
EDGE_WEIGHT_TYPE: EXACT_2D
NODE_COORD_SECTION
1 0.00000 0.00000
2 -34 -15
3 -34 -15
4 -34 -15
5 -34 -15
6 -25 45
7 -25 45
8 -25 45
9 -25 45
10 34 1
11 34 1
12 28 -33
13 28 -33
14 28 -33
15 -41 -43
16 -41 -43
17 -41 -43
18 -41 -43
19 -41 -43
20 -39 18
21 -39 18
22 -39 18
23 -39 18
24 -39 18
25 -33 -38
26 -33 -38
27 -35 43
28 -35 43
29 -35 43
30 -35 43
31 -1 8
32 -1 8
33 -1 8
34 -25 27
35 -25 27
36 -25 27
37 -25 27
38 18 -3
39 18 -3
40 18 -3
41 18 -3
42 -43 4
43 -43 4
44 -43 4
45 -43 4
46 28 27
47 28 27
48 28 27
49 28 27
50 28 27
51 28 27
52 -11 0
53 -11 0
54 41 49
55 41 49
56 41 49
57 41 49
58 -11 18
59 -11 18
60 -11 18
61 9 -37
62 9 -37
63 9 -37
64 9 -37
65 9 -37
66 9 -37
67 9 -37
68 29 -25
69 29 -25
70 1 -2
71 1 -2
72 -11 -14
73 -11 -14
74 -11 -14
75 -11 -14
76 -11 -14
77 -11 -14
78 -11 -14
79 -3 -19
80 -3 -19
81 -3 -19
82 -3 -19
83 -3 -19
84 39 31
85 39 31
86 39 31
87 39 31
88 39 31
89 22 -46
90 22 -46
91 22 -46
92 49 -38
93 49 -38
94 49 -38
95 49 -38
96 -6 -40
97 -6 -40
98 -6 -40
99 -6 -40
100 -4 36
101 -4 36
102 -4 36
103 -15 50
104 -15 50
105 -15 50
106 -15 50
107 -43 28
108 -43 28
109 -43 28
110 -11 1
111 -11 1
112 -11 1
113 -11 1
114 -23 -6
115 -23 -6
116 -23 -6
117 -23 -6
118 -23 -6
119 -23 -6
120 -21 -7
121 -21 -7
122 -21 -7
123 -21 -7
124 -21 -7
125 5 1
126 5 1
127 2 18
128 2 18
129 2 18
130 2 18
131 2 18
132 -5 -14
133 -5 -14
134 -5 -14
135 -5 -14
136 -5 -14
137 8 5
138 8 5
139 8 5
140 8 5
141 46 -9
142 46 -9
143 -42 21
144 -42 21
145 -7 -23
146 32 -10
147 32 -10
148 32 -10
149 32 -10
150 32 -10
151 -36 33
152 -36 33
153 -36 33
154 -36 33
155 -36 33
156 -36 33
157 -3 -44
158 -3 -44
159 -3 -44
160 -3 -44
161 16 -21
162 16 -21
163 16 -21
164 16 -21
165 49 34
166 49 34
167 49 34
168 49 34
169 49 34
170 -45 -28
171 -45 -28
172 -45 -28
173 -43 -32
174 -43 -32
175 -43 -32
176 -43 -32
177 -43 -32
178 -43 -32
179 -20 39
180 -20 39
181 -20 39
182 -20 39
183 -20 39
184 45 1
185 45 1
186 45 1
187 45 1
188 45 1
189 30 -26
190 30 -26
191 35 -50
192 35 -50
193 35 -50
194 35 -50
195 35 -50
196 -43 -13
197 -43 -13
198 -43 -13
DEMAND_SECTION
1 0
2 100
3 50
4 10
5 10
6 200
7 200
8 10
9 10
10 200
11 10
12 200
13 10
14 10
15 200
16 100
17 50
18 10
19 10
20 200
21 50
22 10
23 10
24 10
25 200
26 100
27 100
28 50
29 10
30 10
31 200
32 100
33 50
34 200
35 10
36 10
37 10
38 200
39 100
40 50
41 10
42 200
43 10
44 10
45 10
46 200
47 200
48 10
49 10
50 10
51 10
52 100
53 50
54 100
55 10
56 10
57 10
58 200
59 200
60 50
61 200
62 200
63 50
64 10
65 10
66 10
67 10
68 200
69 50
70 200
71 100
72 200
73 200
74 50
75 10
76 10
77 10
78 10
79 100
80 50
81 10
82 10
83 10
84 200
85 50
86 10
87 10
88 10
89 200
90 100
91 10
92 200
93 100
94 50
95 10
96 200
97 100
98 50
99 10
100 200
101 200
102 10
103 200
104 200
105 50
106 10
107 200
108 10
109 10
110 100
111 10
112 10
113 10
114 200
115 100
116 50
117 10
118 10
119 10
120 100
121 10
122 10
123 10
124 10
125 200
126 10
127 100
128 10
129 10
130 10
131 10
132 200
133 10
134 10
135 10
136 10
137 200
138 100
139 50
140 10
141 200
142 200
143 100
144 50
145 200
146 200
147 50
148 10
149 10
150 10
151 200
152 100
153 50
154 10
155 10
156 10
157 100
158 50
159 10
160 10
161 200
162 100
163 10
164 10
165 200
166 200
167 10
168 10
169 10
170 200
171 100
172 50
173 200
174 50
175 10
176 10
177 10
178 10
179 200
180 200
181 10
182 10
183 10
184 200
185 100
186 10
187 10
188 10
189 200
190 100
191 200
192 200
193 50
194 10
195 10
196 200
197 200
198 10
DEPOT_SECTION
1
-1
EOF