Normalized Data/p01_7_normalized_splitx10_0.sol
197 -4 3 1 2 197 195 196 170 169 171 77 74 73 -10 9 184 187 183 185 186 140 141 -24 25 15 14 16 17 18 174 173 172 177 175 176 -27 26 28 29 6 5 181 182 180 178 179 -32 30 31 46 45 47 48 49 50 136 -35 33 154 151 150 7 8 104 103 102 105 -36 34 152 153 155 108 106 107 142 143 22 23 19 21 20 44 42 43 41 -40 39 37 38 148 147 149 145 146 160 161 162 163 -54 56 53 55 168 167 166 164 165 85 87 86 84 83 139 137 138 -59 57 58 100 99 101 127 128 129 130 126 -61 60 63 65 159 156 157 158 96 97 95 98 79 -62 64 66 90 88 89 12 13 11 188 67 -68 189 94 91 93 92 190 194 192 191 193 -70 69 124 125 -75 76 72 71 144 81 78 80 82 135 133 132 131 134 -111 109 110 112 52 51 116 117 113 118 115 114 120 121 122 119 123 0 





OBJ=
1566.147
BEST_KNOWN=
0.000